(set-logic QF_S)
(declare-fun var0 () String)
(assert (RegexIn var0 (RegexConcat (RegexStar (RegexPlus (Str2Reg "0"))) (RegexConcat (RegexStar (RegexPlus (Str2Reg "11"))) (RegexConcat (RegexUnion (RegexStar (Str2Reg "222")) (RegexStar (Str2Reg "3"))) (RegexConcat (RegexStar (RegexUnion (Str2Reg "444") (Str2Reg "555"))) (RegexConcat (RegexStar (RegexPlus (Str2Reg "6"))) (RegexConcat (RegexPlus (RegexUnion (Str2Reg "7") (Str2Reg "88"))) (RegexConcat (RegexPlus (RegexStar (Str2Reg "999"))) (RegexConcat (RegexUnion (RegexUnion (Str2Reg "aaa") (Str2Reg "bb")) (RegexUnion (Str2Reg "cc") (Str2Reg "d"))) (RegexConcat (RegexStar (RegexStar (Str2Reg "ee"))) (RegexConcat (RegexUnion (RegexPlus (Str2Reg "fff")) (RegexPlus (Str2Reg "gg"))) (RegexConcat (RegexStar (RegexUnion (Str2Reg "h") (Str2Reg "ii"))) (RegexConcat (RegexUnion (RegexStar (Str2Reg "jj")) (RegexStar (Str2Reg "kk"))) (RegexConcat (RegexPlus (RegexStar (Str2Reg "ll"))) (RegexConcat (RegexUnion (RegexStar (Str2Reg "mm")) (RegexStar (Str2Reg "n"))) (RegexConcat (RegexStar (RegexPlus (Str2Reg "ooo"))) (RegexConcat (RegexPlus (RegexUnion (Str2Reg "pp") (Str2Reg "qqq"))) (RegexConcat (RegexStar (RegexUnion (Str2Reg "r") (Str2Reg "s"))) (RegexConcat (RegexStar (RegexPlus (Str2Reg "ttt"))) (RegexStar (RegexUnion (Str2Reg "uuu") (Str2Reg "v")))))))))))))))))))))))
(check-sat)